 O Sr Ti 
 1.0000000000000000
     7.9398665198999998    0.0000000000000000    0.0000000000000000
     0.0000000000000000    7.9398665198999998    0.0000000000000000
     0.0000000000000000    0.0000000000000000   33.8947664098249959
  48  16  16
Selective dynamics
Cartesian
  1.9849666299750000  1.9849666299750000  9.9999999999999982   F   F   F
  0.0000000000000000  1.9849666299749997 11.9849666299749984   F   F   F
  1.9849666299750000 -0.0000000000000001 11.9849666299749984   F   F   F
  5.9548998899249996  1.9849666299750000  9.9999999999999982   F   F   F
  3.9699332599499999  1.9849666299749997 11.9849666299749984   F   F   F
  5.9548998899249996 -0.0000000000000001 11.9849666299749984   F   F   F
  1.9849666299750000  5.9548998899249996  9.9999999999999982   F   F   F
  0.0000000000000000  5.9548998899249996 11.9849666299749984   F   F   F
  1.9849666299750000  3.9699332599499999 11.9849666299749984   F   F   F
  5.9548998899249996  5.9548998899249996  9.9999999999999982   F   F   F
  3.9699332599499999  5.9548998899249996 11.9849666299749984   F   F   F
  5.9548998899249996  3.9699332599499999 11.9849666299749984   F   F   F
  1.9849666299750000  1.9849666299749997 13.9699332599499986   F   F   F
  0.0000000000000000  1.9849666299749995 15.9548998899249987   F   F   F
  1.9849666299750000 -0.0000000000000004 15.9548998899249987   F   F   F
  5.9548998899249996  1.9849666299749997 13.9699332599499986   F   F   F
  3.9699332599499999  1.9849666299749995 15.9548998899249987   F   F   F
  5.9548998899249996 -0.0000000000000004 15.9548998899249987   F   F   F
  1.9849666299750000  5.9548998899249996 13.9699332599499986   F   F   F
  0.0000000000000000  5.9548998899249996 15.9548998899249987   F   F   F
  1.9849666299750000  3.9699332599499995 15.9548998899249987   F   F   F
  5.9548998899249996  5.9548998899249996 13.9699332599499986   F   F   F
  3.9699332599499999  5.9548998899249996 15.9548998899249987   F   F   F
  5.9548998899249996  3.9699332599499995 15.9548998899249987   F   F   F
  1.9849694514152447  1.9849725664123028 17.8944225416132596   T   T   T
  0.0001776802734810  1.9849662280475366 20.0204085571438384   T   T   T
  1.9849677607301242  0.0000479792678912 20.0204169859304493   T   T   T
  5.9549009602140055  1.9849706115858052 17.8943778609425372   T   T   T
  3.9697591665934322  1.9849653387043300 20.0204172317788611   T   T   T
  5.9549010234511393  0.0000674679218350 20.0203911420765053   T   T   T
  1.9849665764328197  5.9548945420795905 17.8944119576433351   T   T   T
  0.0001951734653690  5.9548966827722802 20.0204250399805908   T   T   T
  1.9849680219517638  3.9698864138387955 20.0204545996933199   T   T   T
  5.9548994545550542  5.9548978465123605 17.8943658345226595   T   T   T
  3.9697371487205273  5.9548969796645927 20.0204215277601172   T   T   T
  5.9549012032347752  3.9698662251174839 20.0204007404029767   T   T   T
  1.9849700017320793  1.9849674517924070 22.2018139426764698   T   T   T
  0.0000532791254074  1.9849672899395285 24.1276288795841012   T   T   T
  1.9849750020025876  0.0000033109778446 24.1276113559408074   T   T   T
  5.9549043609311401  1.9849680691278928 22.2020800142782839   T   T   T
  3.9699456777721522  1.9849670358636422 24.1276285234890970   T   T   T
  5.9549085117701255  0.0000036399004383 24.1276388874013143   T   T   T
  1.9849660880399351  5.9549007382684005 22.2018906064990666   T   T   T
  0.0000353722716988  5.9548990207084129 24.1276293158638673   T   T   T
  1.9849750417655714  3.9699329910116101 24.1276094740512939   T   T   T
  5.9549019120495181  5.9548979623342868 22.2021133135620694   T   T   T
  3.9699148369619670  5.9548990365073919 24.1276280991339718   T   T   T
  5.9549087380926862  3.9699255486773861 24.1276378232287350   T   T   T
  0.0000000000000000  0.0000000000000000  9.9999999999999982   F   F   F
  3.9699332599499999  0.0000000000000000  9.9999999999999982   F   F   F
  0.0000000000000000  3.9699332599499999  9.9999999999999982   F   F   F
  3.9699332599499999  3.9699332599499999  9.9999999999999982   F   F   F
  0.0000000000000000 -0.0000000000000002 13.9699332599499986   F   F   F
  3.9699332599499999 -0.0000000000000002 13.9699332599499986   F   F   F
  0.0000000000000000  3.9699332599499995 13.9699332599499986   F   F   F
  3.9699332599499999  3.9699332599499995 13.9699332599499986   F   F   F
 -0.0000054786012719 -0.0000063332445348 17.8825405463537308   T   T   T
  3.9699397314728344 -0.0000101796711211 17.8825403183039811   T   T   T
 -0.0000066235238800  3.9699412133101051 17.8825210795308536   T   T   T
  3.9699412561826013  3.9699448296723885 17.8825218650011806   T   T   T
 -0.0000406686848259 -0.0000094691791069 22.3783320650579327   T   T   T
  3.9699682056994083 -0.0000143024438602 22.3783322416197095   T   T   T
 -0.0000435243432624  3.9699439469518585 22.3783472304277318   T   T   T
  3.9699709425968228  3.9699490225467740 22.3783502219822523   T   T   T
  1.9849666299750000  1.9849666299749997 11.9849666299749984   F   F   F
  5.9548998899249996  1.9849666299749997 11.9849666299749984   F   F   F
  1.9849666299750000  5.9548998899249996 11.9849666299749984   F   F   F
  5.9548998899249996  5.9548998899249996 11.9849666299749984   F   F   F
  1.9849666299750000  1.9849666299749995 15.9548998899249987   F   F   F
  5.9548998899249996  1.9849666299749995 15.9548998899249987   F   F   F
  1.9849666299750000  5.9548998899249996 15.9548998899249987   F   F   F
  5.9548998899249996  5.9548998899249996 15.9548998899249987   F   F   F
  1.9849083969243440  1.9849628866450435 24.0302744521279870   T   T   T
  5.9548419521686471  1.9849692575052611 24.0303424062178941   T   T   T
  1.9849579000474817  5.9548996986968294 24.0303109244959643   T   T   T
  5.9548917242537769  5.9549062296483415 24.0302731381691075   T   T   T
  1.9849592680070169  1.9849241608608839 20.0129604367150513   T   T   T
  5.9549121258789510  1.9849281453971328 20.0130315225795101   T   T   T
  1.9849775289427694  5.9549452901414419 20.0130413173966630   T   T   T
  5.9548864949686413  5.9549406289349713 20.0129444005201371   T   T   T
